c 
c G(n,p) graph
c graph gen seed     : 37919
c number of vertices : 80
c max number of edges: 3160
c edge probability   : 0.200000
c data structure     : sparse
c
c           Graph Stats
c number of vertices  : 80
c nonisolated vertices: 80
c number of edges     : 655
c edge density        : 0.207278
c max degree          : 25
c avg degree          : 16.38
c min degree          : 8
p col 80 655
e 1 77
e 1 71
e 1 66
e 1 60
e 1 56
e 1 51
e 1 48
e 1 46
e 1 37
e 1 33
e 1 30
e 1 20
e 1 19
e 1 12
e 1 11
e 1 9
e 1 7
e 2 80
e 2 79
e 2 77
e 2 72
e 2 68
e 2 66
e 2 60
e 2 53
e 2 50
e 2 44
e 2 37
e 2 36
e 2 34
e 2 33
e 2 31
e 2 30
e 2 27
e 2 26
e 2 25
e 2 23
e 2 20
e 2 19
e 2 8
e 2 5
e 2 4
e 3 80
e 3 75
e 3 71
e 3 70
e 3 67
e 3 65
e 3 62
e 3 60
e 3 58
e 3 52
e 3 38
e 3 34
e 3 21
e 3 13
e 3 11
e 3 7
e 3 4
e 4 70
e 4 68
e 4 65
e 4 59
e 4 54
e 4 52
e 4 50
e 4 44
e 4 43
e 4 42
e 4 37
e 4 19
e 4 9
e 5 74
e 5 72
e 5 68
e 5 65
e 5 64
e 5 59
e 5 55
e 5 53
e 5 41
e 5 39
e 5 37
e 5 10
e 5 7
e 6 78
e 6 77
e 6 73
e 6 64
e 6 61
e 6 60
e 6 56
e 6 54
e 6 53
e 6 45
e 6 44
e 6 42
e 6 41
e 6 34
e 6 30
e 6 26
e 6 18
e 6 15
e 6 11
e 6 8
e 7 77
e 7 75
e 7 72
e 7 71
e 7 69
e 7 57
e 7 53
e 7 50
e 7 40
e 7 27
e 7 19
e 7 18
e 7 10
e 8 80
e 8 69
e 8 67
e 8 60
e 8 58
e 8 49
e 8 44
e 8 43
e 8 34
e 8 30
e 8 29
e 8 26
e 8 23
e 8 21
e 8 20
e 8 17
e 8 10
e 9 75
e 9 69
e 9 68
e 9 63
e 9 61
e 9 59
e 9 50
e 9 49
e 9 46
e 9 41
e 9 36
e 9 29
e 9 20
e 9 11
e 10 77
e 10 73
e 10 54
e 10 52
e 10 48
e 10 45
e 10 43
e 10 32
e 10 30
e 10 22
e 10 14
e 11 69
e 11 62
e 11 59
e 11 49
e 11 34
e 11 30
e 11 25
e 11 24
e 11 19
e 11 14
e 12 79
e 12 77
e 12 75
e 12 71
e 12 70
e 12 69
e 12 67
e 12 65
e 12 56
e 12 48
e 12 45
e 12 43
e 12 25
e 12 22
e 12 19
e 12 13
e 13 78
e 13 73
e 13 62
e 13 59
e 13 58
e 13 51
e 13 47
e 13 45
e 13 42
e 13 37
e 13 36
e 13 33
e 13 32
e 13 30
e 13 27
e 13 23
e 13 21
e 13 17
e 13 14
e 14 75
e 14 71
e 14 70
e 14 63
e 14 61
e 14 49
e 14 43
e 14 42
e 14 37
e 14 31
e 14 29
e 14 22
e 14 21
e 14 20
e 14 19
e 15 80
e 15 79
e 15 78
e 15 75
e 15 71
e 15 59
e 15 54
e 15 52
e 15 47
e 15 39
e 15 34
e 15 30
e 15 28
e 15 26
e 16 80
e 16 74
e 16 69
e 16 61
e 16 57
e 16 53
e 16 50
e 16 49
e 16 44
e 16 39
e 16 37
e 16 29
e 16 26
e 16 18
e 16 17
e 17 80
e 17 54
e 17 52
e 17 44
e 17 43
e 17 39
e 17 24
e 17 22
e 18 80
e 18 78
e 18 70
e 18 68
e 18 67
e 18 66
e 18 59
e 18 57
e 18 56
e 18 50
e 18 49
e 18 43
e 18 39
e 18 38
e 18 37
e 18 36
e 18 22
e 19 77
e 19 71
e 19 70
e 19 69
e 19 67
e 19 61
e 19 54
e 19 50
e 19 40
e 19 37
e 19 31
e 19 27
e 19 24
e 19 23
e 20 66
e 20 65
e 20 64
e 20 62
e 20 60
e 20 56
e 20 52
e 20 51
e 20 47
e 20 46
e 20 43
e 20 41
e 20 40
e 20 33
e 20 29
e 21 80
e 21 74
e 21 73
e 21 71
e 21 65
e 21 59
e 21 57
e 21 56
e 21 51
e 21 49
e 21 38
e 21 37
e 21 33
e 21 29
e 21 25
e 21 23
e 21 22
e 22 80
e 22 78
e 22 77
e 22 74
e 22 65
e 22 59
e 22 58
e 22 50
e 22 49
e 22 42
e 22 39
e 22 38
e 22 28
e 22 23
e 23 80
e 23 64
e 23 63
e 23 43
e 23 39
e 23 36
e 23 35
e 23 34
e 23 33
e 23 28
e 23 24
e 24 78
e 24 65
e 24 64
e 24 63
e 24 60
e 24 51
e 24 50
e 24 47
e 24 44
e 24 28
e 24 25
e 25 78
e 25 71
e 25 66
e 25 63
e 25 61
e 25 49
e 25 46
e 25 44
e 25 32
e 26 77
e 26 76
e 26 69
e 26 67
e 26 65
e 26 56
e 26 53
e 26 51
e 26 44
e 26 36
e 27 79
e 27 74
e 27 71
e 27 70
e 27 62
e 27 55
e 27 48
e 27 38
e 27 35
e 27 32
e 28 78
e 28 68
e 28 58
e 28 47
e 28 31
e 29 77
e 29 74
e 29 64
e 29 56
e 29 55
e 29 50
e 29 47
e 29 41
e 29 40
e 29 35
e 29 33
e 29 32
e 30 73
e 30 69
e 30 58
e 30 48
e 30 47
e 30 37
e 30 33
e 31 77
e 31 75
e 31 69
e 31 67
e 31 66
e 31 63
e 31 61
e 31 60
e 31 37
e 31 36
e 31 35
e 31 32
e 32 79
e 32 70
e 32 69
e 32 68
e 32 64
e 32 62
e 32 54
e 32 51
e 32 49
e 32 47
e 32 46
e 32 44
e 32 43
e 32 34
e 32 33
e 33 74
e 33 54
e 33 52
e 33 49
e 33 38
e 34 79
e 34 76
e 34 70
e 34 65
e 34 64
e 34 58
e 34 54
e 34 46
e 34 39
e 35 79
e 35 69
e 35 63
e 35 56
e 35 49
e 35 48
e 35 37
e 36 73
e 36 67
e 36 59
e 36 46
e 36 38
e 37 78
e 37 77
e 37 69
e 37 66
e 37 59
e 37 57
e 37 54
e 37 53
e 37 48
e 37 47
e 37 43
e 37 39
e 38 76
e 38 73
e 38 69
e 38 64
e 38 63
e 38 59
e 38 57
e 38 56
e 38 53
e 38 51
e 38 44
e 38 40
e 39 80
e 39 77
e 39 76
e 39 71
e 39 70
e 39 69
e 39 66
e 39 60
e 39 50
e 39 49
e 40 74
e 40 64
e 40 62
e 40 59
e 40 52
e 40 48
e 40 41
e 41 80
e 41 58
e 41 55
e 41 47
e 42 80
e 42 79
e 42 78
e 42 77
e 42 71
e 42 57
e 42 56
e 42 46
e 43 77
e 43 74
e 43 69
e 43 58
e 43 56
e 43 51
e 43 48
e 44 77
e 44 62
e 44 57
e 44 54
e 44 51
e 45 77
e 45 71
e 45 62
e 45 57
e 46 76
e 46 75
e 46 73
e 46 69
e 46 65
e 46 59
e 46 50
e 47 68
e 47 65
e 47 54
e 48 76
e 48 70
e 48 53
e 48 51
e 49 79
e 49 76
e 49 68
e 49 66
e 49 65
e 49 61
e 49 53
e 49 52
e 49 51
e 50 74
e 50 73
e 50 66
e 51 79
e 51 73
e 51 71
e 51 69
e 51 67
e 51 64
e 51 56
e 51 53
e 52 72
e 52 71
e 52 70
e 52 68
e 52 67
e 52 58
e 53 75
e 53 74
e 53 73
e 53 67
e 53 62
e 53 60
e 53 55
e 53 54
e 54 77
e 54 74
e 54 73
e 54 66
e 54 63
e 54 61
e 54 56
e 55 78
e 55 58
e 55 57
e 56 80
e 56 79
e 56 76
e 56 75
e 56 72
e 56 70
e 56 69
e 56 63
e 56 57
e 57 80
e 57 78
e 57 68
e 57 64
e 57 61
e 57 60
e 58 73
e 58 72
e 58 67
e 58 66
e 58 64
e 58 62
e 59 75
e 59 69
e 59 67
e 59 63
e 60 79
e 60 76
e 60 75
e 60 69
e 60 64
e 61 76
e 61 71
e 61 70
e 61 62
e 62 80
e 62 79
e 62 78
e 62 70
e 62 66
e 63 77
e 63 74
e 64 79
e 64 69
e 65 79
e 65 77
e 65 72
e 65 70
e 65 66
e 66 80
e 66 78
e 67 80
e 68 80
e 68 70
e 69 79
e 70 80
e 71 78
e 72 79
e 72 73
e 74 78
e 74 75
e 75 79
e 75 77
e 76 80
e 77 80
e 78 80
e 78 79
